16 32
1 2 4
1 5 4
2 3 3
2 6 1
3 4 1
3 7 3
4 8 3
5 6 1
5 9 4
6 7 1
6 10 2
7 8 1
7 11 5
8 12 2
9 10 1
9 13 4
10 11 4
10 14 5
11 12 1
11 15 5
12 16 2
13 14 1
14 15 4
15 16 1
1 13 4
2 14 4
3 15 4
4 16 1
1 4 5
5 8 2
9 12 4
13 16 4
